NAME Sudoku Problem
ROWS
 N  OBJ
 E  R0      
 E  R1      
 E  R2      
 E  R3      
 E  R4      
 E  R5      
 E  R6      
 E  R7      
 E  R8      
 E  R9      
 E  R10     
 E  R11     
 E  R12     
 E  R13     
 E  R14     
 E  R15     
 E  R16     
 E  R17     
 E  R18     
 E  R19     
 E  R20     
 E  R21     
 E  R22     
 E  R23     
 E  R24     
 E  R25     
 E  R26     
 E  R27     
 E  R28     
 E  R29     
 E  R30     
 E  R31     
 E  R32     
 E  R33     
 E  R34     
 E  R35     
 E  R36     
 E  R37     
 E  R38     
 E  R39     
 E  R40     
 E  R41     
 E  R42     
 E  R43     
 E  R44     
 E  R45     
 E  R46     
 E  R47     
 E  R48     
 E  R49     
 E  R50     
 E  R51     
 E  R52     
 E  R53     
 E  R54     
 E  R55     
 E  R56     
 E  R57     
 E  R58     
 E  R59     
 E  R60     
 E  R61     
 E  R62     
 E  R63     
 E  R64     
 E  R65     
 E  R66     
 E  R67     
 E  R68     
 E  R69     
 E  R70     
 E  R71     
 E  R72     
 E  R73     
 E  R74     
 E  R75     
 E  R76     
 E  R77     
 E  R78     
 E  R79     
 E  R80     
 E  R81     
 E  R82     
 E  R83     
 E  R84     
 E  R85     
 E  R86     
 E  R87     
 E  R88     
 E  R89     
 E  R90     
 E  R91     
 E  R92     
 E  R93     
 E  R94     
 E  R95     
 E  R96     
 E  R97     
 E  R98     
 E  R99     
 E  R100    
 E  R101    
 E  R102    
 E  R103    
 E  R104    
 E  R105    
 E  R106    
 E  R107    
 E  R108    
 E  R109    
 E  R110    
 E  R111    
 E  R112    
 E  R113    
 E  R114    
 E  R115    
 E  R116    
 E  R117    
 E  R118    
 E  R119    
 E  R120    
 E  R121    
 E  R122    
 E  R123    
 E  R124    
 E  R125    
 E  R126    
 E  R127    
 E  R128    
 E  R129    
 E  R130    
 E  R131    
 E  R132    
 E  R133    
 E  R134    
COLUMNS
    MARKER    'MARKER'                 'INTORG'
    x_1_1     R0        1
    x_1_1     R16       1
    x_1_1     R32       1
    x_1_2     R0        1
    x_1_2     R17       1
    x_1_2     R32       1
    x_1_2     R48       1
    x_1_3     R0        1
    x_1_3     R18       1
    x_1_3     R32       1
    x_1_4     R0        1
    x_1_4     R19       1
    x_1_4     R32       1
    x_1_5     R0        1
    x_1_5     R20       1
    x_1_5     R33       1
    x_1_6     R0        1
    x_1_6     R21       1
    x_1_6     R33       1
    x_1_7     R0        1
    x_1_7     R22       1
    x_1_7     R33       1
    x_1_8     R0        1
    x_1_8     R23       1
    x_1_8     R33       1
    x_1_9     R0        1
    x_1_9     R24       1
    x_1_9     R34       1
    x_1_9     R49       1
    x_1_10    R0        1
    x_1_10    R25       1
    x_1_10    R34       1
    x_1_10    R50       1
    x_1_11    R0        1
    x_1_11    R26       1
    x_1_11    R34       1
    x_1_12    R0        1
    x_1_12    R27       1
    x_1_12    R34       1
    x_1_13    R0        1
    x_1_13    R28       1
    x_1_13    R35       1
    x_1_14    R0        1
    x_1_14    R29       1
    x_1_14    R35       1
    x_1_14    R51       1
    x_1_15    R0        1
    x_1_15    R30       1
    x_1_15    R35       1
    x_1_15    R52       1
    x_1_16    R0        1
    x_1_16    R31       1
    x_1_16    R35       1
    x_2_1     R1        1
    x_2_1     R16       1
    x_2_1     R32       1
    x_2_2     R1        1
    x_2_2     R17       1
    x_2_2     R32       1
    x_2_3     R1        1
    x_2_3     R18       1
    x_2_3     R32       1
    x_2_4     R1        1
    x_2_4     R19       1
    x_2_4     R32       1
    x_2_4     R53       1
    x_2_5     R1        1
    x_2_5     R20       1
    x_2_5     R33       1
    x_2_6     R1        1
    x_2_6     R21       1
    x_2_6     R33       1
    x_2_7     R1        1
    x_2_7     R22       1
    x_2_7     R33       1
    x_2_8     R1        1
    x_2_8     R23       1
    x_2_8     R33       1
    x_2_9     R1        1
    x_2_9     R24       1
    x_2_9     R34       1
    x_2_9     R54       1
    x_2_10    R1        1
    x_2_10    R25       1
    x_2_10    R34       1
    x_2_11    R1        1
    x_2_11    R26       1
    x_2_11    R34       1
    x_2_11    R55       1
    x_2_12    R1        1
    x_2_12    R27       1
    x_2_12    R34       1
    x_2_13    R1        1
    x_2_13    R28       1
    x_2_13    R35       1
    x_2_14    R1        1
    x_2_14    R29       1
    x_2_14    R35       1
    x_2_15    R1        1
    x_2_15    R30       1
    x_2_15    R35       1
    x_2_16    R1        1
    x_2_16    R31       1
    x_2_16    R35       1
    x_2_16    R56       1
    x_3_1     R2        1
    x_3_1     R16       1
    x_3_1     R32       1
    x_3_1     R57       1
    x_3_2     R2        1
    x_3_2     R17       1
    x_3_2     R32       1
    x_3_3     R2        1
    x_3_3     R18       1
    x_3_3     R32       1
    x_3_4     R2        1
    x_3_4     R19       1
    x_3_4     R32       1
    x_3_5     R2        1
    x_3_5     R20       1
    x_3_5     R33       1
    x_3_6     R2        1
    x_3_6     R21       1
    x_3_6     R33       1
    x_3_7     R2        1
    x_3_7     R22       1
    x_3_7     R33       1
    x_3_8     R2        1
    x_3_8     R23       1
    x_3_8     R33       1
    x_3_8     R58       1
    x_3_9     R2        1
    x_3_9     R24       1
    x_3_9     R34       1
    x_3_10    R2        1
    x_3_10    R25       1
    x_3_10    R34       1
    x_3_11    R2        1
    x_3_11    R26       1
    x_3_11    R34       1
    x_3_12    R2        1
    x_3_12    R27       1
    x_3_12    R34       1
    x_3_13    R2        1
    x_3_13    R28       1
    x_3_13    R35       1
    x_3_13    R59       1
    x_3_14    R2        1
    x_3_14    R29       1
    x_3_14    R35       1
    x_3_15    R2        1
    x_3_15    R30       1
    x_3_15    R35       1
    x_3_16    R2        1
    x_3_16    R31       1
    x_3_16    R35       1
    x_3_16    R60       1
    x_4_1     R3        1
    x_4_1     R16       1
    x_4_1     R32       1
    x_4_1     R61       1
    x_4_2     R3        1
    x_4_2     R17       1
    x_4_2     R32       1
    x_4_3     R3        1
    x_4_3     R18       1
    x_4_3     R32       1
    x_4_4     R3        1
    x_4_4     R19       1
    x_4_4     R32       1
    x_4_5     R3        1
    x_4_5     R20       1
    x_4_5     R33       1
    x_4_5     R62       1
    x_4_6     R3        1
    x_4_6     R21       1
    x_4_6     R33       1
    x_4_6     R63       1
    x_4_7     R3        1
    x_4_7     R22       1
    x_4_7     R33       1
    x_4_8     R3        1
    x_4_8     R23       1
    x_4_8     R33       1
    x_4_9     R3        1
    x_4_9     R24       1
    x_4_9     R34       1
    x_4_9     R64       1
    x_4_10    R3        1
    x_4_10    R25       1
    x_4_10    R34       1
    x_4_11    R3        1
    x_4_11    R26       1
    x_4_11    R34       1
    x_4_11    R65       1
    x_4_12    R3        1
    x_4_12    R27       1
    x_4_12    R34       1
    x_4_13    R3        1
    x_4_13    R28       1
    x_4_13    R35       1
    x_4_14    R3        1
    x_4_14    R29       1
    x_4_14    R35       1
    x_4_15    R3        1
    x_4_15    R30       1
    x_4_15    R35       1
    x_4_16    R3        1
    x_4_16    R31       1
    x_4_16    R35       1
    x_5_1     R4        1
    x_5_1     R16       1
    x_5_1     R36       1
    x_5_2     R4        1
    x_5_2     R17       1
    x_5_2     R36       1
    x_5_3     R4        1
    x_5_3     R18       1
    x_5_3     R36       1
    x_5_3     R66       1
    x_5_4     R4        1
    x_5_4     R19       1
    x_5_4     R36       1
    x_5_5     R4        1
    x_5_5     R20       1
    x_5_5     R37       1
    x_5_6     R4        1
    x_5_6     R21       1
    x_5_6     R37       1
    x_5_7     R4        1
    x_5_7     R22       1
    x_5_7     R37       1
    x_5_8     R4        1
    x_5_8     R23       1
    x_5_8     R37       1
    x_5_8     R67       1
    x_5_9     R4        1
    x_5_9     R24       1
    x_5_9     R38       1
    x_5_10    R4        1
    x_5_10    R25       1
    x_5_10    R38       1
    x_5_11    R4        1
    x_5_11    R26       1
    x_5_11    R38       1
    x_5_11    R68       1
    x_5_12    R4        1
    x_5_12    R27       1
    x_5_12    R38       1
    x_5_13    R4        1
    x_5_13    R28       1
    x_5_13    R39       1
    x_5_14    R4        1
    x_5_14    R29       1
    x_5_14    R39       1
    x_5_14    R69       1
    x_5_15    R4        1
    x_5_15    R30       1
    x_5_15    R39       1
    x_5_15    R70       1
    x_5_16    R4        1
    x_5_16    R31       1
    x_5_16    R39       1
    x_6_1     R5        1
    x_6_1     R16       1
    x_6_1     R36       1
    x_6_1     R71       1
    x_6_2     R5        1
    x_6_2     R17       1
    x_6_2     R36       1
    x_6_3     R5        1
    x_6_3     R18       1
    x_6_3     R36       1
    x_6_3     R72       1
    x_6_4     R5        1
    x_6_4     R19       1
    x_6_4     R36       1
    x_6_5     R5        1
    x_6_5     R20       1
    x_6_5     R37       1
    x_6_5     R73       1
    x_6_6     R5        1
    x_6_6     R21       1
    x_6_6     R37       1
    x_6_7     R5        1
    x_6_7     R22       1
    x_6_7     R37       1
    x_6_8     R5        1
    x_6_8     R23       1
    x_6_8     R37       1
    x_6_9     R5        1
    x_6_9     R24       1
    x_6_9     R38       1
    x_6_10    R5        1
    x_6_10    R25       1
    x_6_10    R38       1
    x_6_11    R5        1
    x_6_11    R26       1
    x_6_11    R38       1
    x_6_12    R5        1
    x_6_12    R27       1
    x_6_12    R38       1
    x_6_13    R5        1
    x_6_13    R28       1
    x_6_13    R39       1
    x_6_13    R74       1
    x_6_14    R5        1
    x_6_14    R29       1
    x_6_14    R39       1
    x_6_14    R75       1
    x_6_15    R5        1
    x_6_15    R30       1
    x_6_15    R39       1
    x_6_15    R76       1
    x_6_16    R5        1
    x_6_16    R31       1
    x_6_16    R39       1
    x_6_16    R77       1
    x_7_1     R6        1
    x_7_1     R16       1
    x_7_1     R36       1
    x_7_2     R6        1
    x_7_2     R17       1
    x_7_2     R36       1
    x_7_2     R78       1
    x_7_3     R6        1
    x_7_3     R18       1
    x_7_3     R36       1
    x_7_3     R79       1
    x_7_4     R6        1
    x_7_4     R19       1
    x_7_4     R36       1
    x_7_5     R6        1
    x_7_5     R20       1
    x_7_5     R37       1
    x_7_6     R6        1
    x_7_6     R21       1
    x_7_6     R37       1
    x_7_7     R6        1
    x_7_7     R22       1
    x_7_7     R37       1
    x_7_7     R80       1
    x_7_8     R6        1
    x_7_8     R23       1
    x_7_8     R37       1
    x_7_9     R6        1
    x_7_9     R24       1
    x_7_9     R38       1
    x_7_9     R81       1
    x_7_10    R6        1
    x_7_10    R25       1
    x_7_10    R38       1
    x_7_11    R6        1
    x_7_11    R26       1
    x_7_11    R38       1
    x_7_11    R82       1
    x_7_12    R6        1
    x_7_12    R27       1
    x_7_12    R38       1
    x_7_13    R6        1
    x_7_13    R28       1
    x_7_13    R39       1
    x_7_14    R6        1
    x_7_14    R29       1
    x_7_14    R39       1
    x_7_14    R83       1
    x_7_15    R6        1
    x_7_15    R30       1
    x_7_15    R39       1
    x_7_16    R6        1
    x_7_16    R31       1
    x_7_16    R39       1
    x_8_1     R7        1
    x_8_1     R16       1
    x_8_1     R36       1
    x_8_2     R7        1
    x_8_2     R17       1
    x_8_2     R36       1
    x_8_3     R7        1
    x_8_3     R18       1
    x_8_3     R36       1
    x_8_4     R7        1
    x_8_4     R19       1
    x_8_4     R36       1
    x_8_5     R7        1
    x_8_5     R20       1
    x_8_5     R37       1
    x_8_5     R84       1
    x_8_6     R7        1
    x_8_6     R21       1
    x_8_6     R37       1
    x_8_7     R7        1
    x_8_7     R22       1
    x_8_7     R37       1
    x_8_7     R85       1
    x_8_8     R7        1
    x_8_8     R23       1
    x_8_8     R37       1
    x_8_8     R86       1
    x_8_9     R7        1
    x_8_9     R24       1
    x_8_9     R38       1
    x_8_10    R7        1
    x_8_10    R25       1
    x_8_10    R38       1
    x_8_11    R7        1
    x_8_11    R26       1
    x_8_11    R38       1
    x_8_12    R7        1
    x_8_12    R27       1
    x_8_12    R38       1
    x_8_13    R7        1
    x_8_13    R28       1
    x_8_13    R39       1
    x_8_13    R87       1
    x_8_14    R7        1
    x_8_14    R29       1
    x_8_14    R39       1
    x_8_15    R7        1
    x_8_15    R30       1
    x_8_15    R39       1
    x_8_15    R88       1
    x_8_16    R7        1
    x_8_16    R31       1
    x_8_16    R39       1
    x_9_1     R8        1
    x_9_1     R16       1
    x_9_1     R40       1
    x_9_2     R8        1
    x_9_2     R17       1
    x_9_2     R40       1
    x_9_2     R89       1
    x_9_3     R8        1
    x_9_3     R18       1
    x_9_3     R40       1
    x_9_4     R8        1
    x_9_4     R19       1
    x_9_4     R40       1
    x_9_5     R8        1
    x_9_5     R20       1
    x_9_5     R41       1
    x_9_5     R90       1
    x_9_6     R8        1
    x_9_6     R21       1
    x_9_6     R41       1
    x_9_7     R8        1
    x_9_7     R22       1
    x_9_7     R41       1
    x_9_8     R8        1
    x_9_8     R23       1
    x_9_8     R41       1
    x_9_9     R8        1
    x_9_9     R24       1
    x_9_9     R42       1
    x_9_10    R8        1
    x_9_10    R25       1
    x_9_10    R42       1
    x_9_11    R8        1
    x_9_11    R26       1
    x_9_11    R42       1
    x_9_12    R8        1
    x_9_12    R27       1
    x_9_12    R42       1
    x_9_12    R91       1
    x_9_13    R8        1
    x_9_13    R28       1
    x_9_13    R43       1
    x_9_13    R92       1
    x_9_14    R8        1
    x_9_14    R29       1
    x_9_14    R43       1
    x_9_15    R8        1
    x_9_15    R30       1
    x_9_15    R43       1
    x_9_16    R8        1
    x_9_16    R31       1
    x_9_16    R43       1
    x_9_16    R93       1
    x_10_1    R9        1
    x_10_1    R16       1
    x_10_1    R40       1
    x_10_2    R9        1
    x_10_2    R17       1
    x_10_2    R40       1
    x_10_2    R94       1
    x_10_3    R9        1
    x_10_3    R18       1
    x_10_3    R40       1
    x_10_4    R9        1
    x_10_4    R19       1
    x_10_4    R40       1
    x_10_4    R95       1
    x_10_5    R9        1
    x_10_5    R20       1
    x_10_5    R41       1
    x_10_5    R96       1
    x_10_6    R9        1
    x_10_6    R21       1
    x_10_6    R41       1
    x_10_7    R9        1
    x_10_7    R22       1
    x_10_7    R41       1
    x_10_8    R9        1
    x_10_8    R23       1
    x_10_8    R41       1
    x_10_9    R9        1
    x_10_9    R24       1
    x_10_9    R42       1
    x_10_10   R9        1
    x_10_10   R25       1
    x_10_10   R42       1
    x_10_10   R97       1
    x_10_11   R9        1
    x_10_11   R26       1
    x_10_11   R42       1
    x_10_12   R9        1
    x_10_12   R27       1
    x_10_12   R42       1
    x_10_12   R98       1
    x_10_13   R9        1
    x_10_13   R28       1
    x_10_13   R43       1
    x_10_13   R99       1
    x_10_14   R9        1
    x_10_14   R29       1
    x_10_14   R43       1
    x_10_15   R9        1
    x_10_15   R30       1
    x_10_15   R43       1
    x_10_15   R100      1
    x_10_16   R9        1
    x_10_16   R31       1
    x_10_16   R43       1
    x_11_1    R10       1
    x_11_1    R16       1
    x_11_1    R40       1
    x_11_2    R10       1
    x_11_2    R17       1
    x_11_2    R40       1
    x_11_3    R10       1
    x_11_3    R18       1
    x_11_3    R40       1
    x_11_4    R10       1
    x_11_4    R19       1
    x_11_4    R40       1
    x_11_4    R101      1
    x_11_5    R10       1
    x_11_5    R20       1
    x_11_5    R41       1
    x_11_5    R102      1
    x_11_6    R10       1
    x_11_6    R21       1
    x_11_6    R41       1
    x_11_7    R10       1
    x_11_7    R22       1
    x_11_7    R41       1
    x_11_8    R10       1
    x_11_8    R23       1
    x_11_8    R41       1
    x_11_8    R103      1
    x_11_9    R10       1
    x_11_9    R24       1
    x_11_9    R42       1
    x_11_9    R104      1
    x_11_10   R10       1
    x_11_10   R25       1
    x_11_10   R42       1
    x_11_11   R10       1
    x_11_11   R26       1
    x_11_11   R42       1
    x_11_12   R10       1
    x_11_12   R27       1
    x_11_12   R42       1
    x_11_13   R10       1
    x_11_13   R28       1
    x_11_13   R43       1
    x_11_14   R10       1
    x_11_14   R29       1
    x_11_14   R43       1
    x_11_15   R10       1
    x_11_15   R30       1
    x_11_15   R43       1
    x_11_16   R10       1
    x_11_16   R31       1
    x_11_16   R43       1
    x_11_16   R105      1
    x_12_1    R11       1
    x_12_1    R16       1
    x_12_1    R40       1
    x_12_1    R106      1
    x_12_2    R11       1
    x_12_2    R17       1
    x_12_2    R40       1
    x_12_2    R107      1
    x_12_3    R11       1
    x_12_3    R18       1
    x_12_3    R40       1
    x_12_4    R11       1
    x_12_4    R19       1
    x_12_4    R40       1
    x_12_5    R11       1
    x_12_5    R20       1
    x_12_5    R41       1
    x_12_5    R108      1
    x_12_6    R11       1
    x_12_6    R21       1
    x_12_6    R41       1
    x_12_7    R11       1
    x_12_7    R22       1
    x_12_7    R41       1
    x_12_7    R109      1
    x_12_8    R11       1
    x_12_8    R23       1
    x_12_8    R41       1
    x_12_9    R11       1
    x_12_9    R24       1
    x_12_9    R42       1
    x_12_9    R110      1
    x_12_10   R11       1
    x_12_10   R25       1
    x_12_10   R42       1
    x_12_10   R111      1
    x_12_11   R11       1
    x_12_11   R26       1
    x_12_11   R42       1
    x_12_11   R112      1
    x_12_12   R11       1
    x_12_12   R27       1
    x_12_12   R42       1
    x_12_13   R11       1
    x_12_13   R28       1
    x_12_13   R43       1
    x_12_14   R11       1
    x_12_14   R29       1
    x_12_14   R43       1
    x_12_14   R113      1
    x_12_15   R11       1
    x_12_15   R30       1
    x_12_15   R43       1
    x_12_16   R11       1
    x_12_16   R31       1
    x_12_16   R43       1
    x_13_1    R12       1
    x_13_1    R16       1
    x_13_1    R44       1
    x_13_2    R12       1
    x_13_2    R17       1
    x_13_2    R44       1
    x_13_3    R12       1
    x_13_3    R18       1
    x_13_3    R44       1
    x_13_4    R12       1
    x_13_4    R19       1
    x_13_4    R44       1
    x_13_5    R12       1
    x_13_5    R20       1
    x_13_5    R45       1
    x_13_5    R114      1
    x_13_6    R12       1
    x_13_6    R21       1
    x_13_6    R45       1
    x_13_7    R12       1
    x_13_7    R22       1
    x_13_7    R45       1
    x_13_8    R12       1
    x_13_8    R23       1
    x_13_8    R45       1
    x_13_9    R12       1
    x_13_9    R24       1
    x_13_9    R46       1
    x_13_10   R12       1
    x_13_10   R25       1
    x_13_10   R46       1
    x_13_11   R12       1
    x_13_11   R26       1
    x_13_11   R46       1
    x_13_12   R12       1
    x_13_12   R27       1
    x_13_12   R46       1
    x_13_13   R12       1
    x_13_13   R28       1
    x_13_13   R47       1
    x_13_14   R12       1
    x_13_14   R29       1
    x_13_14   R47       1
    x_13_15   R12       1
    x_13_15   R30       1
    x_13_15   R47       1
    x_13_16   R12       1
    x_13_16   R31       1
    x_13_16   R47       1
    x_13_16   R115      1
    x_14_1    R13       1
    x_14_1    R16       1
    x_14_1    R44       1
    x_14_1    R116      1
    x_14_2    R13       1
    x_14_2    R17       1
    x_14_2    R44       1
    x_14_2    R117      1
    x_14_3    R13       1
    x_14_3    R18       1
    x_14_3    R44       1
    x_14_3    R118      1
    x_14_4    R13       1
    x_14_4    R19       1
    x_14_4    R44       1
    x_14_5    R13       1
    x_14_5    R20       1
    x_14_5    R45       1
    x_14_6    R13       1
    x_14_6    R21       1
    x_14_6    R45       1
    x_14_6    R119      1
    x_14_7    R13       1
    x_14_7    R22       1
    x_14_7    R45       1
    x_14_7    R120      1
    x_14_8    R13       1
    x_14_8    R23       1
    x_14_8    R45       1
    x_14_8    R121      1
    x_14_9    R13       1
    x_14_9    R24       1
    x_14_9    R46       1
    x_14_10   R13       1
    x_14_10   R25       1
    x_14_10   R46       1
    x_14_11   R13       1
    x_14_11   R26       1
    x_14_11   R46       1
    x_14_11   R122      1
    x_14_12   R13       1
    x_14_12   R27       1
    x_14_12   R46       1
    x_14_12   R123      1
    x_14_13   R13       1
    x_14_13   R28       1
    x_14_13   R47       1
    x_14_14   R13       1
    x_14_14   R29       1
    x_14_14   R47       1
    x_14_15   R13       1
    x_14_15   R30       1
    x_14_15   R47       1
    x_14_16   R13       1
    x_14_16   R31       1
    x_14_16   R47       1
    x_15_1    R14       1
    x_15_1    R16       1
    x_15_1    R44       1
    x_15_2    R14       1
    x_15_2    R17       1
    x_15_2    R44       1
    x_15_3    R14       1
    x_15_3    R18       1
    x_15_3    R44       1
    x_15_4    R14       1
    x_15_4    R19       1
    x_15_4    R44       1
    x_15_5    R14       1
    x_15_5    R20       1
    x_15_5    R45       1
    x_15_5    R124      1
    x_15_6    R14       1
    x_15_6    R21       1
    x_15_6    R45       1
    x_15_6    R125      1
    x_15_7    R14       1
    x_15_7    R22       1
    x_15_7    R45       1
    x_15_8    R14       1
    x_15_8    R23       1
    x_15_8    R45       1
    x_15_9    R14       1
    x_15_9    R24       1
    x_15_9    R46       1
    x_15_10   R14       1
    x_15_10   R25       1
    x_15_10   R46       1
    x_15_10   R126      1
    x_15_11   R14       1
    x_15_11   R26       1
    x_15_11   R46       1
    x_15_11   R127      1
    x_15_12   R14       1
    x_15_12   R27       1
    x_15_12   R46       1
    x_15_13   R14       1
    x_15_13   R28       1
    x_15_13   R47       1
    x_15_14   R14       1
    x_15_14   R29       1
    x_15_14   R47       1
    x_15_15   R14       1
    x_15_15   R30       1
    x_15_15   R47       1
    x_15_16   R14       1
    x_15_16   R31       1
    x_15_16   R47       1
    x_16_1    R15       1
    x_16_1    R16       1
    x_16_1    R44       1
    x_16_2    R15       1
    x_16_2    R17       1
    x_16_2    R44       1
    x_16_3    R15       1
    x_16_3    R18       1
    x_16_3    R44       1
    x_16_3    R128      1
    x_16_4    R15       1
    x_16_4    R19       1
    x_16_4    R44       1
    x_16_4    R129      1
    x_16_5    R15       1
    x_16_5    R20       1
    x_16_5    R45       1
    x_16_6    R15       1
    x_16_6    R21       1
    x_16_6    R45       1
    x_16_7    R15       1
    x_16_7    R22       1
    x_16_7    R45       1
    x_16_7    R130      1
    x_16_8    R15       1
    x_16_8    R23       1
    x_16_8    R45       1
    x_16_8    R131      1
    x_16_9    R15       1
    x_16_9    R24       1
    x_16_9    R46       1
    x_16_10   R15       1
    x_16_10   R25       1
    x_16_10   R46       1
    x_16_11   R15       1
    x_16_11   R26       1
    x_16_11   R46       1
    x_16_11   R132      1
    x_16_12   R15       1
    x_16_12   R27       1
    x_16_12   R46       1
    x_16_12   R133      1
    x_16_13   R15       1
    x_16_13   R28       1
    x_16_13   R47       1
    x_16_14   R15       1
    x_16_14   R29       1
    x_16_14   R47       1
    x_16_15   R15       1
    x_16_15   R30       1
    x_16_15   R47       1
    x_16_16   R15       1
    x_16_16   R31       1
    x_16_16   R47       1
    x_16_16   R134      1
    MARKER    'MARKER'                 'INTEND'
RHS
    RHS1      R0        65519
    RHS1      R1        65519
    RHS1      R2        65519
    RHS1      R3        65519
    RHS1      R4        65519
    RHS1      R5        65519
    RHS1      R6        65519
    RHS1      R7        65519
    RHS1      R8        65519
    RHS1      R9        65519
    RHS1      R10       65519
    RHS1      R11       65519
    RHS1      R12       65519
    RHS1      R13       65519
    RHS1      R14       65519
    RHS1      R15       65519
    RHS1      R16       65519
    RHS1      R17       65519
    RHS1      R18       65519
    RHS1      R19       65519
    RHS1      R20       65519
    RHS1      R21       65519
    RHS1      R22       65519
    RHS1      R23       65519
    RHS1      R24       65519
    RHS1      R25       65519
    RHS1      R26       65519
    RHS1      R27       65519
    RHS1      R28       65519
    RHS1      R29       65519
    RHS1      R30       65519
    RHS1      R31       65519
    RHS1      R32       65519
    RHS1      R33       65519
    RHS1      R34       65519
    RHS1      R35       65519
    RHS1      R36       65519
    RHS1      R37       65519
    RHS1      R38       65519
    RHS1      R39       65519
    RHS1      R40       65519
    RHS1      R41       65519
    RHS1      R42       65519
    RHS1      R43       65519
    RHS1      R44       65519
    RHS1      R45       65519
    RHS1      R46       65519
    RHS1      R47       65519
    RHS1      R48       16383
    RHS1      R49       127
    RHS1      R50       63
    RHS1      R51       3
    RHS1      R52       1
    RHS1      R53       255
    RHS1      R54       7
    RHS1      R55       1
    RHS1      R56       15
    RHS1      R57       127
    RHS1      R59       2047
    RHS1      R60       255
    RHS1      R61       7
    RHS1      R62       127
    RHS1      R63       63
    RHS1      R64       2047
    RHS1      R65       511
    RHS1      R66       4095
    RHS1      R67       511
    RHS1      R68       15
    RHS1      R69       7
    RHS1      R71       1023
    RHS1      R72       255
    RHS1      R73       16383
    RHS1      R74       63
    RHS1      R75       127
    RHS1      R76       15
    RHS1      R77       31
    RHS1      R78       127
    RHS1      R79       15
    RHS1      R81       16383
    RHS1      R82       4095
    RHS1      R83       2047
    RHS1      R84       63
    RHS1      R85       15
    RHS1      R86       31
    RHS1      R87       16383
    RHS1      R88       4095
    RHS1      R89       4095
    RHS1      R90       511
    RHS1      R91       63
    RHS1      R92       1
    RHS1      R93       3
    RHS1      R94       255
    RHS1      R95       1023
    RHS1      R96       8191
    RHS1      R98       3
    RHS1      R99       31
    RHS1      R100      127
    RHS1      R101      63
    RHS1      R102      1
    RHS1      R103      3
    RHS1      R104      8191
    RHS1      R105      1023
    RHS1      R106      1
    RHS1      R108      31
    RHS1      R109      127
    RHS1      R110      511
    RHS1      R111      255
    RHS1      R112      2047
    RHS1      R113      4095
    RHS1      R114      255
    RHS1      R115      7
    RHS1      R116      255
    RHS1      R117      511
    RHS1      R118      1023
    RHS1      R119      8191
    RHS1      R120      16383
    RHS1      R121      32767
    RHS1      R122      3
    RHS1      R123      7
    RHS1      R125      1
    RHS1      R126      8191
    RHS1      R127      16383
    RHS1      R128      3
    RHS1      R129      7
    RHS1      R130      63
    RHS1      R131      127
    RHS1      R132      1023
    RHS1      R133      2047
    RHS1      R134      32767
BOUNDS
 BV BND1      x_1_1   
 BV BND1      x_1_2   
 BV BND1      x_1_3   
 BV BND1      x_1_4   
 BV BND1      x_1_5   
 BV BND1      x_1_6   
 BV BND1      x_1_7   
 BV BND1      x_1_8   
 BV BND1      x_1_9   
 BV BND1      x_1_10  
 BV BND1      x_1_11  
 BV BND1      x_1_12  
 BV BND1      x_1_13  
 BV BND1      x_1_14  
 BV BND1      x_1_15  
 BV BND1      x_1_16  
 BV BND1      x_2_1   
 BV BND1      x_2_2   
 BV BND1      x_2_3   
 BV BND1      x_2_4   
 BV BND1      x_2_5   
 BV BND1      x_2_6   
 BV BND1      x_2_7   
 BV BND1      x_2_8   
 BV BND1      x_2_9   
 BV BND1      x_2_10  
 BV BND1      x_2_11  
 BV BND1      x_2_12  
 BV BND1      x_2_13  
 BV BND1      x_2_14  
 BV BND1      x_2_15  
 BV BND1      x_2_16  
 BV BND1      x_3_1   
 BV BND1      x_3_2   
 BV BND1      x_3_3   
 BV BND1      x_3_4   
 BV BND1      x_3_5   
 BV BND1      x_3_6   
 BV BND1      x_3_7   
 BV BND1      x_3_8   
 BV BND1      x_3_9   
 BV BND1      x_3_10  
 BV BND1      x_3_11  
 BV BND1      x_3_12  
 BV BND1      x_3_13  
 BV BND1      x_3_14  
 BV BND1      x_3_15  
 BV BND1      x_3_16  
 BV BND1      x_4_1   
 BV BND1      x_4_2   
 BV BND1      x_4_3   
 BV BND1      x_4_4   
 BV BND1      x_4_5   
 BV BND1      x_4_6   
 BV BND1      x_4_7   
 BV BND1      x_4_8   
 BV BND1      x_4_9   
 BV BND1      x_4_10  
 BV BND1      x_4_11  
 BV BND1      x_4_12  
 BV BND1      x_4_13  
 BV BND1      x_4_14  
 BV BND1      x_4_15  
 BV BND1      x_4_16  
 BV BND1      x_5_1   
 BV BND1      x_5_2   
 BV BND1      x_5_3   
 BV BND1      x_5_4   
 BV BND1      x_5_5   
 BV BND1      x_5_6   
 BV BND1      x_5_7   
 BV BND1      x_5_8   
 BV BND1      x_5_9   
 BV BND1      x_5_10  
 BV BND1      x_5_11  
 BV BND1      x_5_12  
 BV BND1      x_5_13  
 BV BND1      x_5_14  
 BV BND1      x_5_15  
 BV BND1      x_5_16  
 BV BND1      x_6_1   
 BV BND1      x_6_2   
 BV BND1      x_6_3   
 BV BND1      x_6_4   
 BV BND1      x_6_5   
 BV BND1      x_6_6   
 BV BND1      x_6_7   
 BV BND1      x_6_8   
 BV BND1      x_6_9   
 BV BND1      x_6_10  
 BV BND1      x_6_11  
 BV BND1      x_6_12  
 BV BND1      x_6_13  
 BV BND1      x_6_14  
 BV BND1      x_6_15  
 BV BND1      x_6_16  
 BV BND1      x_7_1   
 BV BND1      x_7_2   
 BV BND1      x_7_3   
 BV BND1      x_7_4   
 BV BND1      x_7_5   
 BV BND1      x_7_6   
 BV BND1      x_7_7   
 BV BND1      x_7_8   
 BV BND1      x_7_9   
 BV BND1      x_7_10  
 BV BND1      x_7_11  
 BV BND1      x_7_12  
 BV BND1      x_7_13  
 BV BND1      x_7_14  
 BV BND1      x_7_15  
 BV BND1      x_7_16  
 BV BND1      x_8_1   
 BV BND1      x_8_2   
 BV BND1      x_8_3   
 BV BND1      x_8_4   
 BV BND1      x_8_5   
 BV BND1      x_8_6   
 BV BND1      x_8_7   
 BV BND1      x_8_8   
 BV BND1      x_8_9   
 BV BND1      x_8_10  
 BV BND1      x_8_11  
 BV BND1      x_8_12  
 BV BND1      x_8_13  
 BV BND1      x_8_14  
 BV BND1      x_8_15  
 BV BND1      x_8_16  
 BV BND1      x_9_1   
 BV BND1      x_9_2   
 BV BND1      x_9_3   
 BV BND1      x_9_4   
 BV BND1      x_9_5   
 BV BND1      x_9_6   
 BV BND1      x_9_7   
 BV BND1      x_9_8   
 BV BND1      x_9_9   
 BV BND1      x_9_10  
 BV BND1      x_9_11  
 BV BND1      x_9_12  
 BV BND1      x_9_13  
 BV BND1      x_9_14  
 BV BND1      x_9_15  
 BV BND1      x_9_16  
 BV BND1      x_10_1  
 BV BND1      x_10_2  
 BV BND1      x_10_3  
 BV BND1      x_10_4  
 BV BND1      x_10_5  
 BV BND1      x_10_6  
 BV BND1      x_10_7  
 BV BND1      x_10_8  
 BV BND1      x_10_9  
 BV BND1      x_10_10 
 BV BND1      x_10_11 
 BV BND1      x_10_12 
 BV BND1      x_10_13 
 BV BND1      x_10_14 
 BV BND1      x_10_15 
 BV BND1      x_10_16 
 BV BND1      x_11_1  
 BV BND1      x_11_2  
 BV BND1      x_11_3  
 BV BND1      x_11_4  
 BV BND1      x_11_5  
 BV BND1      x_11_6  
 BV BND1      x_11_7  
 BV BND1      x_11_8  
 BV BND1      x_11_9  
 BV BND1      x_11_10 
 BV BND1      x_11_11 
 BV BND1      x_11_12 
 BV BND1      x_11_13 
 BV BND1      x_11_14 
 BV BND1      x_11_15 
 BV BND1      x_11_16 
 BV BND1      x_12_1  
 BV BND1      x_12_2  
 BV BND1      x_12_3  
 BV BND1      x_12_4  
 BV BND1      x_12_5  
 BV BND1      x_12_6  
 BV BND1      x_12_7  
 BV BND1      x_12_8  
 BV BND1      x_12_9  
 BV BND1      x_12_10 
 BV BND1      x_12_11 
 BV BND1      x_12_12 
 BV BND1      x_12_13 
 BV BND1      x_12_14 
 BV BND1      x_12_15 
 BV BND1      x_12_16 
 BV BND1      x_13_1  
 BV BND1      x_13_2  
 BV BND1      x_13_3  
 BV BND1      x_13_4  
 BV BND1      x_13_5  
 BV BND1      x_13_6  
 BV BND1      x_13_7  
 BV BND1      x_13_8  
 BV BND1      x_13_9  
 BV BND1      x_13_10 
 BV BND1      x_13_11 
 BV BND1      x_13_12 
 BV BND1      x_13_13 
 BV BND1      x_13_14 
 BV BND1      x_13_15 
 BV BND1      x_13_16 
 BV BND1      x_14_1  
 BV BND1      x_14_2  
 BV BND1      x_14_3  
 BV BND1      x_14_4  
 BV BND1      x_14_5  
 BV BND1      x_14_6  
 BV BND1      x_14_7  
 BV BND1      x_14_8  
 BV BND1      x_14_9  
 BV BND1      x_14_10 
 BV BND1      x_14_11 
 BV BND1      x_14_12 
 BV BND1      x_14_13 
 BV BND1      x_14_14 
 BV BND1      x_14_15 
 BV BND1      x_14_16 
 BV BND1      x_15_1  
 BV BND1      x_15_2  
 BV BND1      x_15_3  
 BV BND1      x_15_4  
 BV BND1      x_15_5  
 BV BND1      x_15_6  
 BV BND1      x_15_7  
 BV BND1      x_15_8  
 BV BND1      x_15_9  
 BV BND1      x_15_10 
 BV BND1      x_15_11 
 BV BND1      x_15_12 
 BV BND1      x_15_13 
 BV BND1      x_15_14 
 BV BND1      x_15_15 
 BV BND1      x_15_16 
 BV BND1      x_16_1  
 BV BND1      x_16_2  
 BV BND1      x_16_3  
 BV BND1      x_16_4  
 BV BND1      x_16_5  
 BV BND1      x_16_6  
 BV BND1      x_16_7  
 BV BND1      x_16_8  
 BV BND1      x_16_9  
 BV BND1      x_16_10 
 BV BND1      x_16_11 
 BV BND1      x_16_12 
 BV BND1      x_16_13 
 BV BND1      x_16_14 
 BV BND1      x_16_15 
 BV BND1      x_16_16 
ENDATA
